Read MPS format model from file dat/rmp/4node_32768_21.mps
Reading time = 1.42 seconds
: 32828 rows, 158895 columns, 3640901 nonzeros
Gurobi Optimizer version 9.0.0 build v9.0.0rc2 (linux64)
Optimize a model with 32828 rows, 158895 columns and 3640901 nonzeros
Model fingerprint: 0xda630d99
Coefficient statistics:
  Matrix range     [2e-04, 2e+01]
  Objective range  [2e-03, 1e+04]
  Bounds range     [0e+00, 0e+00]
  RHS range        [1e+00, 8e+01]
Ordering time: 0.04s

Barrier statistics:
 AA' NZ     : 1.496e+06
 Factor NZ  : 1.869e+06 (roughly 100 MBytes of memory)
 Factor Ops : 1.166e+08 (less than 1 second per iteration)
 Threads    : 1

                  Objective                Residual
Iter       Primal          Dual         Primal    Dual     Compl     Time
   0   3.98188679e+07  0.00000000e+00  8.07e+04 2.40e+02  8.45e+04     1s
   1   1.39708480e+06 -1.30543141e+08  2.56e+03 1.81e+03  3.93e+03     1s
   2   1.12789444e+06 -1.27959404e+08  1.64e+03 2.06e+03  2.83e+03     1s
   3   4.93967145e+05 -1.10419018e+08  5.04e+02 1.11e+03  1.34e+03     2s
   4   2.16881448e+05 -2.70124736e+07  7.59e-01 7.89e+01  1.91e+02     2s
   5   2.03708006e+05 -7.06816814e+06  6.14e-09 1.97e+01  5.06e+01     2s
   6   1.76320020e+05 -1.14534613e+06  1.55e-09 3.15e+00  9.09e+00     2s
   7   1.01128297e+05 -4.44521236e+05  1.86e-09 1.38e+00  3.75e+00     3s
   8   7.15343314e+04 -2.67157265e+05  1.16e-09 8.74e-01  2.33e+00     3s
   9   2.88362589e+04 -1.42924695e+05  1.54e-09 4.68e-01  1.18e+00     3s
  10   5.62032475e+03 -4.77852128e+04  9.55e-08 1.46e-01  3.67e-01     4s
  11   2.95008962e+03 -1.68271157e+04  6.22e-08 4.34e-02  1.34e-01     4s
  12   2.85197860e+03 -1.12858858e+04  6.11e-08 2.65e-02  9.45e-02     4s
  13   1.21066142e+03 -4.69986324e+03  3.59e-08 5.37e-03  3.83e-02     4s
  14   6.25117696e+02 -3.49418375e+03  6.96e-08 3.62e-03  2.67e-02     5s
  15   3.62889913e+02 -3.21263466e+03  2.35e-07 2.81e-03  2.31e-02     5s
  16  -2.40790650e+02 -2.18629231e+03  1.03e-07 1.53e-03  1.26e-02     5s
  17  -2.45423853e+02 -1.78943156e+03  1.61e-06 1.22e-03  9.97e-03     6s
  18  -3.26835684e+02 -8.37573753e+02  1.31e-06 3.21e-04  3.28e-03     6s
  19  -3.79590568e+02 -4.65799909e+02  3.51e-07 2.64e-05  5.48e-04     6s
  20  -4.21454089e+02 -4.54604924e+02  1.01e-06 1.02e-05  2.11e-04     6s
  21  -4.31313877e+02 -4.50501468e+02  9.39e-07 5.08e-06  1.22e-04     7s
  22  -4.33544867e+02 -4.49158313e+02  1.69e-06 3.78e-06  9.91e-05     7s
  23  -4.34731766e+02 -4.48355421e+02  1.57e-06 2.15e-06  8.62e-05     7s
  24  -4.35814131e+02 -4.48093453e+02  1.31e-06 1.72e-06  7.77e-05     7s
  25  -4.40921086e+02 -4.47375991e+02  8.25e-07 3.58e-07  4.07e-05     8s
  26  -4.43974984e+02 -4.47205894e+02  2.21e-06 2.24e-07  2.04e-05     8s
  27  -4.45792003e+02 -4.47068095e+02  2.90e-06 1.10e-07  8.06e-06     8s
  28  -4.45919510e+02 -4.47014034e+02  2.49e-06 7.76e-08  6.91e-06     8s
  29  -4.46262639e+02 -4.46989968e+02  1.66e-06 6.49e-08  4.60e-06     9s
  30  -4.46293325e+02 -4.46945252e+02  2.77e-06 4.31e-08  4.12e-06     9s
  31  -4.46295783e+02 -4.46908554e+02  4.78e-06 2.42e-08  3.86e-06    10s
  32  -4.46295936e+02 -4.46908218e+02  5.34e-06 2.40e-08  3.86e-06    10s
  33  -4.46296215e+02 -4.46906791e+02  6.81e-06 2.34e-08  3.85e-06    10s
  34  -4.46296341e+02 -4.46906503e+02  1.78e-05 2.32e-08  3.85e-06    11s
  35  -4.46297465e+02 -4.46902833e+02  1.85e-05 2.17e-08  3.82e-06    11s
  36  -4.46297824e+02 -4.46902822e+02  3.30e-05 2.17e-08  3.82e-06    11s
  37  -4.46298924e+02 -4.46902871e+02  8.59e-05 2.09e-08  3.82e-06    12s
  38  -4.46326064e+02 -4.46905167e+02  1.53e-04 1.16e-08  3.66e-06    12s
  39  -4.46335816e+02 -4.46903655e+02  3.70e-04 1.13e-08  3.61e-06    13s
  40  -4.46383187e+02 -4.46890924e+02  9.03e-05 7.84e-09  3.21e-06    13s
  41  -4.46485373e+02 -4.46879882e+02  9.69e-05 5.26e-09  2.48e-06    13s
  42  -4.46588564e+02 -4.46868913e+02  2.91e-04 2.80e-09  1.77e-06    14s
  43  -4.46697314e+02 -4.46862394e+02  2.83e-04 9.06e-10  1.05e-06    14s
  44  -4.46737510e+02 -4.46860691e+02  2.28e-04 6.86e-10  7.90e-07    15s
  45  -4.46773458e+02 -4.46858369e+02  3.60e-04 3.48e-10  5.52e-07    15s
  46  -4.46777420e+02 -4.46857020e+02  3.12e-04 3.09e-11  5.11e-07    16s
  47  -4.46789381e+02 -4.46856329e+02  3.67e-04 2.91e-11  4.20e-07    16s
  48  -4.46837596e+02 -4.46856028e+02  2.03e-04 1.46e-11  9.91e-08    16s
  49  -4.46854888e+02 -4.46855959e+02  1.78e-04 1.46e-11  7.48e-09    17s
  50  -4.46856030e+02 -4.46855947e+02  1.65e-04 1.46e-11  7.15e-09    17s
  51  -4.46856021e+02 -4.46855938e+02  1.69e-04 1.46e-11  6.09e-09    17s
  52  -4.46856043e+02 -4.46855931e+02  1.78e-04 1.46e-11  5.01e-09    18s
  53  -4.46856465e+02 -4.46855920e+02  1.82e-04 1.46e-11  5.69e-10    18s
  54  -4.46856389e+02 -4.46855917e+02  1.94e-04 2.91e-11  3.05e-10    18s
  55  -4.46856278e+02 -4.46855917e+02  2.05e-04 2.91e-11  7.32e-11    19s

Barrier performed 55 iterations in 18.69 seconds
Sub-optimal termination - objective -4.46262639e+02

Solve time: 18.697422981
Barrier iterations: 55
